NAME reproduction_srl_ilp
* Max problem is converted into Min one
ROWS
 N  OBJ
 L  constraint1_5830
 L  constraint1_3850
 L  constraint1_311
 L  constraint1_310
 L  constraint1_442
 L  constraint1_440
 L  constraint1_441
 L  constraint1_4901
 L  constraint1_1091
 L  constraint2_5830
 L  constraint2_5831
 L  constraint2_5832
 L  constraint2_5833
 L  constraint2_3850
 L  constraint2_3851
 L  constraint2_3852
 L  constraint2_3853
 L  constraint2_310
 L  constraint2_311
 L  constraint2_312
 L  constraint2_313
 L  constraint2_440
 L  constraint2_441
 L  constraint2_442
 L  constraint2_443
 L  constraint2_4900
 L  constraint2_4901
 L  constraint2_4902
 L  constraint2_4903
 L  constraint2_1090
 L  constraint2_1091
 L  constraint2_1092
 L  constraint2_1093
 L  constraint2_2270
 L  constraint2_2271
 L  constraint2_2272
 L  constraint2_2273
COLUMNS
    MARKER    'MARKER'                 'INTORG'
    Z_583_0_0  OBJ       -8.1060870186360097e-04
    Z_583_0_0  constraint1_5830  1
    Z_583_0_0  constraint2_5830  1
    Z_583_0_1  OBJ       -6.3825522030207498e-04
    Z_583_0_1  constraint1_5830  1
    Z_583_0_1  constraint2_5831  1
    Z_583_0_2  OBJ       -8.0937130287181824e-01
    Z_583_0_2  constraint1_5830  1
    Z_583_0_2  constraint2_5832  1
    Z_583_0_3  OBJ       -1.7377687273718429e-03
    Z_583_0_3  constraint1_5830  1
    Z_583_0_3  constraint2_5833  1
    Z_583_0_4  OBJ       -8.7442064478644166e-02
    Z_583_0_4  constraint1_5830  1
    Z_385_0_0  OBJ       -1.8829093674885215e-03
    Z_385_0_0  constraint1_3850  1
    Z_385_0_0  constraint2_3850  1
    Z_385_0_1  OBJ       -5.3217964658075815e-04
    Z_385_0_1  constraint1_3850  1
    Z_385_0_1  constraint2_3851  1
    Z_385_0_2  OBJ       -6.5041387648703008e-01
    Z_385_0_2  constraint1_3850  1
    Z_385_0_2  constraint2_3852  1
    Z_385_0_3  OBJ       -3.8715143638960062e-03
    Z_385_0_3  constraint1_3850  1
    Z_385_0_3  constraint2_3853  1
    Z_385_0_4  OBJ       -2.4329952013500455e-01
    Z_385_0_4  constraint1_3850  1
    Z_31_1_0  OBJ       -6.7031124124198194e-03
    Z_31_1_0  constraint1_311  1
    Z_31_1_0  constraint2_310  1
    Z_31_1_1  OBJ       -2.9932259353128470e-02
    Z_31_1_1  constraint1_311  1
    Z_31_1_1  constraint2_311  1
    Z_31_1_2  OBJ       -1.3806900880143252e-02
    Z_31_1_2  constraint1_311  1
    Z_31_1_2  constraint2_312  1
    Z_31_1_3  OBJ       -5.1025788946068337e-02
    Z_31_1_3  constraint1_311  1
    Z_31_1_3  constraint2_313  1
    Z_31_1_4  OBJ       -7.9853193840824011e-01
    Z_31_1_4  constraint1_311  1
    Z_31_0_0  OBJ       -6.4325755062451262e-04
    Z_31_0_0  constraint1_310  1
    Z_31_0_0  constraint2_310  1
    Z_31_0_1  OBJ       -2.2684857280895854e-03
    Z_31_0_1  constraint1_310  1
    Z_31_0_1  constraint2_311  1
    Z_31_0_2  OBJ       -1.3238441470397799e-02
    Z_31_0_2  constraint1_310  1
    Z_31_0_2  constraint2_312  1
    Z_31_0_3  OBJ       -8.1896899256375444e-01
    Z_31_0_3  constraint1_310  1
    Z_31_0_3  constraint2_313  1
    Z_31_0_4  OBJ       -6.4880822687133910e-02
    Z_31_0_4  constraint1_310  1
    Z_44_2_0  OBJ       -1.6241237370118944e-01
    Z_44_2_0  constraint1_442  1
    Z_44_2_0  constraint2_440  1
    Z_44_2_1  OBJ       -4.3378935847177363e-02
    Z_44_2_1  constraint1_442  1
    Z_44_2_1  constraint2_441  1
    Z_44_2_2  OBJ       -4.0071427066153097e-03
    Z_44_2_2  constraint1_442  1
    Z_44_2_2  constraint2_442  1
    Z_44_2_3  OBJ       -6.7272043163782247e-01
    Z_44_2_3  constraint1_442  1
    Z_44_2_3  constraint2_443  1
    Z_44_2_4  OBJ       -1.7481116107195424e-02
    Z_44_2_4  constraint1_442  1
    Z_44_0_0  OBJ       -7.2981642266357492e-04
    Z_44_0_0  constraint1_440  1
    Z_44_0_0  constraint2_440  1
    Z_44_0_1  OBJ       -5.6786185307801092e-04
    Z_44_0_1  constraint1_440  1
    Z_44_0_1  constraint2_441  1
    Z_44_0_2  OBJ       -6.6094275815205483e-01
    Z_44_0_2  constraint1_440  1
    Z_44_0_2  constraint2_442  1
    Z_44_0_3  OBJ       -1.4829470408351930e-03
    Z_44_0_3  constraint1_440  1
    Z_44_0_3  constraint2_443  1
    Z_44_0_4  OBJ       -2.3627661653136839e-01
    Z_44_0_4  constraint1_440  1
    Z_44_1_0  OBJ       -7.2981642266357492e-04
    Z_44_1_0  constraint1_441  1
    Z_44_1_0  constraint2_440  1
    Z_44_1_1  OBJ       -5.6786185307801092e-04
    Z_44_1_1  constraint1_441  1
    Z_44_1_1  constraint2_441  1
    Z_44_1_2  OBJ       -6.6094275815205483e-01
    Z_44_1_2  constraint1_441  1
    Z_44_1_2  constraint2_442  1
    Z_44_1_3  OBJ       -1.4829470408351930e-03
    Z_44_1_3  constraint1_441  1
    Z_44_1_3  constraint2_443  1
    Z_44_1_4  OBJ       -2.3627661653136839e-01
    Z_44_1_4  constraint1_441  1
    Z_490_1_0  OBJ       -8.4782485429072004e-04
    Z_490_1_0  constraint1_4901  1
    Z_490_1_0  constraint2_4900  1
    Z_490_1_1  OBJ       -6.6798752461089161e-04
    Z_490_1_1  constraint1_4901  1
    Z_490_1_1  constraint2_4901  1
    Z_490_1_2  OBJ       -7.1625953200110037e-01
    Z_490_1_2  constraint1_4901  1
    Z_490_1_2  constraint2_4902  1
    Z_490_1_3  OBJ       -2.2345284271319912e-03
    Z_490_1_3  constraint1_4901  1
    Z_490_1_3  constraint2_4903  1
    Z_490_1_4  OBJ       -1.7999012719286600e-01
    Z_490_1_4  constraint1_4901  1
    Z_109_1_0  OBJ       -8.0020993934005406e-04
    Z_109_1_0  constraint1_1091  1
    Z_109_1_0  constraint2_1090  1
    Z_109_1_1  OBJ       -6.3156291973397714e-04
    Z_109_1_1  constraint1_1091  1
    Z_109_1_1  constraint2_1091  1
    Z_109_1_2  OBJ       -7.6894194764529777e-01
    Z_109_1_2  constraint1_1091  1
    Z_109_1_2  constraint2_1092  1
    Z_109_1_3  OBJ       -1.7141220648360207e-03
    Z_109_1_3  constraint1_1091  1
    Z_109_1_3  constraint2_1093  1
    Z_109_1_4  OBJ       -1.2791215743079229e-01
    Z_109_1_4  constraint1_1091  1
    MARKER    'MARKER'                 'INTEND'
RHS
    RHS1      constraint1_5830  1
    RHS1      constraint1_3850  1
    RHS1      constraint1_311  1
    RHS1      constraint1_310  1
    RHS1      constraint1_442  1
    RHS1      constraint1_440  1
    RHS1      constraint1_441  1
    RHS1      constraint1_4901  1
    RHS1      constraint1_1091  1
    RHS1      constraint2_5830  1
    RHS1      constraint2_5831  1
    RHS1      constraint2_5832  1
    RHS1      constraint2_5833  1
    RHS1      constraint2_3850  1
    RHS1      constraint2_3851  1
    RHS1      constraint2_3852  1
    RHS1      constraint2_3853  1
    RHS1      constraint2_310  1
    RHS1      constraint2_311  1
    RHS1      constraint2_312  1
    RHS1      constraint2_313  1
    RHS1      constraint2_440  1
    RHS1      constraint2_441  1
    RHS1      constraint2_442  1
    RHS1      constraint2_443  1
    RHS1      constraint2_4900  1
    RHS1      constraint2_4901  1
    RHS1      constraint2_4902  1
    RHS1      constraint2_4903  1
    RHS1      constraint2_1090  1
    RHS1      constraint2_1091  1
    RHS1      constraint2_1092  1
    RHS1      constraint2_1093  1
    RHS1      constraint2_2270  1
    RHS1      constraint2_2271  1
    RHS1      constraint2_2272  1
    RHS1      constraint2_2273  1
BOUNDS
 UP BND1      Z_583_0_0  1
 UP BND1      Z_583_0_1  1
 UP BND1      Z_583_0_2  1
 UP BND1      Z_583_0_3  1
 UP BND1      Z_583_0_4  1
 UP BND1      Z_385_0_0  1
 UP BND1      Z_385_0_1  1
 UP BND1      Z_385_0_2  1
 UP BND1      Z_385_0_3  1
 UP BND1      Z_385_0_4  1
 UP BND1      Z_31_1_0  1
 UP BND1      Z_31_1_1  1
 UP BND1      Z_31_1_2  1
 UP BND1      Z_31_1_3  1
 UP BND1      Z_31_1_4  1
 UP BND1      Z_31_0_0  1
 UP BND1      Z_31_0_1  1
 UP BND1      Z_31_0_2  1
 UP BND1      Z_31_0_3  1
 UP BND1      Z_31_0_4  1
 UP BND1      Z_44_2_0  1
 UP BND1      Z_44_2_1  1
 UP BND1      Z_44_2_2  1
 UP BND1      Z_44_2_3  1
 UP BND1      Z_44_2_4  1
 UP BND1      Z_44_0_0  1
 UP BND1      Z_44_0_1  1
 UP BND1      Z_44_0_2  1
 UP BND1      Z_44_0_3  1
 UP BND1      Z_44_0_4  1
 UP BND1      Z_44_1_0  1
 UP BND1      Z_44_1_1  1
 UP BND1      Z_44_1_2  1
 UP BND1      Z_44_1_3  1
 UP BND1      Z_44_1_4  1
 UP BND1      Z_490_1_0  1
 UP BND1      Z_490_1_1  1
 UP BND1      Z_490_1_2  1
 UP BND1      Z_490_1_3  1
 UP BND1      Z_490_1_4  1
 UP BND1      Z_109_1_0  1
 UP BND1      Z_109_1_1  1
 UP BND1      Z_109_1_2  1
 UP BND1      Z_109_1_3  1
 UP BND1      Z_109_1_4  1
ENDATA
